NAME: pr107
DIMENSION: 16
EDGE_WEIGHT_TYPE: EUC_2D
NODE_COORD_SECTION
1 8375 4700
2 8775 4700
3 8375 4900
4 8175 4900
5 8775 4900
6 8575 4900
7 8775 5400
8 8375 5450
9 8775 5600
10 8575 5600
11 8375 5650
12 8175 5650
13 8375 6200
14 8775 6200
15 8375 6400
16 8175 6400
ACCEPTED_PROBABILITIES
0.0
0.22
0.11
0.16
0.25
0.16
0.45
0.42
0.55
0.51
0.53
0.54
0.83
0.86
0.94
0.95
OUTSOURCING_COSTS
0.0
26.67
13.33
18.87
29.8
18.87
53.73
50.0
65.67
61.47
63.33
64.73
100.0
103.47
113.33
114.13
